NAME : pairopt.8149.tour
COMMENT : Length = 8149
COMMENT : Found by LKH-3 [Keld Helsgaun] Sun Mar  2 15:42:38 2025
TYPE : TOUR
DIMENSION : 36
TOUR_SECTION
1
24
32
34
17
14
35
6
5
4
3
23
25
26
27
28
30
31
33
36
21
11
19
20
7
16
13
10
22
9
8
15
18
2
12
29
-1
EOF
